1223822
81,94,107,16,25,83,3,63,20,44,85,43,32,95,61,6,30,103,56,74,92,4,67,79,23,15,100,53,17,80,48,21,13,55,68,40,8,28,36,12,65,60,106,33,78,108,42,88,7,18,50,76,73,19,62,87,96,93,105,99,71,47,97,31,39,14,70,69,27,86,75,57,72,38,41,26,37,9,77,66,49,11,89,91,104,58,54,102,22,64,10,109,24,90,45,82,1,5,35,98,101,34,52,29,46,59,84,51,2,81